MATLAB version: 9.7.0.1190202 (R2019b)

CVX: Software for Disciplined Convex Programming       (c)2014 CVX Research
Version 2.2, Build 1148 (62bfcca)                  Tue Jan 28 00:51:35 2020
---------------------------------------------------------------------------
Installation info:
    Path: D:\Program Files\cvx\cvx
    MATLAB version: 9.7 (R2019b)
    OS: Windows 10 amd64 version 10.0
    Java version: 1.8.0_202
5 solvers initialized (* = default):
    Gurobi     9.00     {cvx}\gurobi\w64
    Gurobi_2   9.10     C:\gurobi910\win64\matlab
    Mosek      9.1.9    {cvx}\mosek\w64
 *  SDPT3      4.0      {cvx}\sdpt3
    SeDuMi     1.3.4    {cvx}\sedumi

MOSEK Version 9.1.13 (Build date: 2020-2-20 14:26:57)
Copyright (c) MOSEK ApS, Denmark. WWW: mosek.com
Platform: Windows/64-X86

Gurobi Optimizer version 9.1.0 build v9.1.0rc0 (win64)

execute test.m.